&CONTROL
   calculation      = 'relax'
   restart_mode     = 'from_scratch'
   prefix           = 'tutorial_hubbard'
   pseudo_dir       = '/home/valmzztt/HEO_calc/TiO2-pers/pseudos'
/
&SYSTEM
   ecutwfc          = 40.424222147
   occupations      = 'smearing'
   degauss          = 0.0146997171
   ntyp             = 3
   nat              = 24
   ibrav            = 0
/
&ELECTRONS
/
&IONS
/
&CELL
/

ATOMIC_SPECIES
Zr 91.224 Zr.pbesol-spn-kjpaw_psl.1.0.0.UPF
Ti 47.867 Ti.pbesol-spn-kjpaw_psl.1.0.0.UPF
O 15.999 O.pbesol-n-kjpaw_psl.1.0.0.UPF

K_POINTS automatic
4 4 4  0 0 0

CELL_PARAMETERS angstrom
9.44200000000000 0.00000000000000 0.00000000000000
0.00000000000000 5.74540000000000 5.01400000000000
0.00000000000000 0.00000000000000 5.01400000000000

ATOMIC_POSITIONS angstrom
Zr 0.0000000000 1.8585219920 3.7605000000 
Ti 0.0000000000 3.8868780080 6.2675000000 
O 1.0795982800 2.1869290560 2.0996125000 
O 1.0795982800 3.5584709440 4.6066125000 
O 1.2809017200 0.6857709440 4.6066125000 
O 1.2809017200 5.0596290560 7.1136125000 
Zr 2.3605000000 1.0141780080 1.2535000000 
Ti 2.3605000000 4.7312219920 8.7745000000 
O 3.4400982800 0.6857709440 2.9143875000 
O 3.4400982800 5.0596290560 5.4213875000 
O 3.6414017200 2.1869290560 5.4213875000 
O 3.6414017200 3.5584709440 7.9283875000 
Zr 4.7210000000 1.8585219920 3.7605000000 
Ti 4.7210000000 3.8868780080 6.2675000000 
O 5.8005982800 2.1869290560 2.0996125000 
O 5.8005982800 3.5584709440 4.6066125000 
O 6.0019017200 0.6857709440 4.6066125000 
O 6.0019017200 5.0596290560 7.1136125000 
Ti 7.0815000000 1.0141780080 1.2535000000 
Ti 7.0815000000 4.7312219920 8.7745000000 
O 8.1610982800 0.6857709440 2.9143875000 
O 8.1610982800 5.0596290560 5.4213875000 
O 8.3624017200 2.1869290560 5.4213875000 
O 8.3624017200 3.5584709440 7.9283875000 

HUBBARD (ortho-atomic)
U Ti-3d 5.0
U Zr-4d 3.0
